
  22    4
  10   10   10   10

   0   0   0   0   0   4 2 3 4 7 
   8  10  10  10  10   3 8 6 5 
   1  10  10  10  10   3 11 8 6 
   3  10  10  10  10   3 11 9 6 
  10  10  10  10  10   4 18 14 12 11 
   9  10  10  10  10   3 14 12 10 
   1  10  10  10  10   3 16 14 9 
   5  10  10  10  10   2 10 9 
  10  10  10  10  10   3 18 13 12 
   4  10  10  10  10   3 18 16 13 
   5  10  10  10  10   3 21 16 13 
   5  10  10  10  10   2 21 17 
   8  10  10  10  10   1 15 
   5  10  10  10  10   3 21 20 19 
  10  10  10  10  10   1 17 
   2  10  10  10  10   1 17 
   8  10  10  10  10   2 20 19 
   9  10  10  10  10   2 21 19 
   6  10  10  10  10   1 22
   3  10  10  10  10   1 22
   4  10  10  10  10   1 22
   0   0   0   0   0   0 
